NAME matlab
ROWS
 N  OBJ
 E  R0      
 E  R1      
 E  R2      
 E  R3      
 E  R4      
 E  R5      
 E  R6      
 E  R7      
 E  R8      
 E  R9      
 E  R10     
 E  R11     
 E  R12     
 E  R13     
 E  R14     
 E  R15     
 E  R16     
 E  R17     
 E  R18     
 E  R19     
 E  R20     
 E  R21     
 E  R22     
 E  R23     
 E  R24     
 E  R25     
 E  R26     
 E  R27     
 E  R28     
 E  R29     
 E  R30     
 E  R31     
 E  R32     
 E  R33     
 E  R34     
 E  R35     
 E  R36     
 E  R37     
 E  R38     
 E  R39     
 E  R40     
 E  R41     
 E  R42     
 E  R43     
 E  R44     
 E  R45     
 E  R46     
 E  R47     
 E  R48     
 E  R49     
 E  R50     
 E  R51     
 E  R52     
 E  R53     
 E  R54     
 E  R55     
 E  R56     
 E  R57     
 E  R58     
 E  R59     
 E  R60     
 E  R61     
 E  R62     
 E  R63     
 E  R64     
 E  R65     
 E  R66     
 E  R67     
 E  R68     
 E  R69     
 E  R70     
 E  R71     
 E  R72     
 E  R73     
 E  R74     
 E  R75     
 E  R76     
 E  R77     
 E  R78     
 E  R79     
 E  R80     
 E  R81     
 E  R82     
 E  R83     
 E  R84     
 E  R85     
 E  R86     
 E  R87     
 E  R88     
 E  R89     
 E  R90     
 E  R91     
 E  R92     
 E  R93     
 E  R94     
 E  R95     
COLUMNS
    C0        OBJ       3.0942336506
    C0        R0        -0.131
    C0        R1        -0.1155
    C0        R2        -0.0365
    C0        R3        -0.143
    C0        R4        -3.0233100000000002e-02
    C0        R5        -1.0686300000000001e-01
    C0        R6        -0.3690801
    C0        R7        -9.1290000000000017e-03
    C0        R24       0.00999711
    C0        R25       8.5872200000000010e-02
    C0        R47       0.537
    C0        R54       1.3852218703470265e+02
    C1        OBJ       2.5100835212
    C1        R0        -0.117
    C1        R1        -0.0649
    C1        R2        -0.1233
    C1        R3        -0.2217
    C1        R4        -1.1079180000000001e-02
    C1        R5        -4.4023620000000006e-02
    C1        R6        -2.3310243000000003e-01
    C1        R7        -2.9016900000000006e-03
    C1        R23       0.0042
    C1        R24       0.006819093
    C1        R25       0.11843088
    C1        R32       -0.00862
    C1        R33       -0.00862
    C1        R38       -0.0101
    C1        R39       -0.0101
    C1        R44       4.5540000000000019e-01
    C1        R47       0.2931
    C1        R55       1.3852218703470265e+02
    C2        OBJ       -4.7354119999999994e-01
    C2        R4        -0.27
    C2        R5        -0.028
    C2        R7        -0.455
    C2        R13       1
    C2        R24       0.01303
    C2        R25       0.0506
    C2        R56       1.3852218703470265e+02
    C3        OBJ       1.2924000000000001e-02
    C3        R6        1
    C3        R8        -1
    C3        R23       0.0327
    C3        R25       0.094
    C3        R57       1.3852218703470265e+02
    C4        R9        -1
    C4        R14       1
    C4        R58       1.3852218703470265e+02
    C5        R10       -1
    C5        R14       1
    C5        R59       1.3852218703470265e+02
    C6        R8        1
    C6        R9        -1
    C6        R60       1.3852218703470265e+02
    C7        R8        1
    C7        R10       -1
    C7        R61       1.3852218703470265e+02
    C8        OBJ       4.0003557440000004e-02
    C8        R4        -0.0193158
    C8        R5        -0.00141708
    C8        R7        -1.4711759999999999e-02
    C8        R9        1
    C8        R11       -0.8145
    C8        R15       -0.0091
    C8        R23       -0.8239
    C8        R24       0.008866164
    C8        R25       -0.20822472
    C8        R49       1.3
    C8        R62       1.3852218703470265e+02
    C9        OBJ       0.01984373552
    C9        R4        -1.3271400000000001e-02
    C9        R5        -0.0010302
    C9        R7        -0.01073024
    C9        R10       1
    C9        R12       -0.8564
    C9        R15       -0.0069
    C9        R23       -0.7689
    C9        R24       6.8264120000000005e-03
    C9        R25       -0.15395576
    C9        R49       1
    C9        R63       1.3852218703470265e+02
    C10       OBJ       3.1200320000000004e-01
    C10       R2        1
    C10       R13       -0.3321
    C10       R14       -0.5875
    C10       R15       -0.362
    C10       R23       2.3
    C10       R25       -0.2049
    C10       R47       1
    C10       R50       1
    C10       R64       1.3852218703470265e+02
    C11       OBJ       3.1200320000000004e-01
    C11       R3        1
    C11       R13       -0.3321
    C11       R14       -0.5875
    C11       R15       -0.362
    C11       R23       2.3
    C11       R25       -0.2049
    C11       R48       1
    C11       R50       1
    C11       R65       1.3852218703470265e+02
    C12       OBJ       3.1200320000000004e-01
    C12       R1        1
    C12       R13       -0.2414
    C12       R14       -0.6627
    C12       R15       -0.293
    C12       R23       2.3
    C12       R25       -0.1531
    C12       R47       1
    C12       R50       1
    C12       R66       1.3852218703470265e+02
    C13       OBJ       3.1200320000000004e-01
    C13       R13       -0.2414
    C13       R14       -0.6627
    C13       R15       -0.293
    C13       R19       1
    C13       R23       2.3
    C13       R25       -0.1531
    C13       R50       1
    C13       R67       1.3852218703470265e+02
    C14       OBJ       -4.1450600000000004e-02
    C14       R2        1
    C14       R4        -0.0185
    C14       R7        -0.0568
    C14       R16       -0.0806
    C14       R17       -0.0658
    C14       R18       -0.4934
    C14       R19       -0.2922
    C14       R24       -0.0654
    C14       R25       -0.2535
    C14       R44       -1.9679999999999989e-02
    C14       R47       1
    C14       R51       1
    C14       R68       1.3852218703470265e+02
    C15       OBJ       -4.1450600000000004e-02
    C15       R3        1
    C15       R4        -0.0185
    C15       R7        -0.0568
    C15       R16       -0.0806
    C15       R17       -0.0658
    C15       R18       -0.4934
    C15       R19       -0.2922
    C15       R24       -0.0654
    C15       R25       -0.2535
    C15       R44       -1.9679999999999989e-02
    C15       R48       1
    C15       R51       1
    C15       R69       1.3852218703470265e+02
    C16       OBJ       -1.5375600000000003e-02
    C16       R1        1
    C16       R4        -0.0184
    C16       R7        -0.0564
    C16       R16       -0.078
    C16       R17       -0.0655
    C16       R18       -0.475
    C16       R19       -0.305
    C16       R24       -0.0654
    C16       R25       -0.2703
    C16       R47       1
    C16       R51       1
    C16       R70       1.3852218703470265e+02
    C17       OBJ       -1.5375600000000003e-02
    C17       R0        1
    C17       R4        -0.0184
    C17       R7        -0.0564
    C17       R16       -0.078
    C17       R17       -0.0655
    C17       R18       -0.475
    C17       R19       -0.305
    C17       R24       -0.0654
    C17       R25       -0.2703
    C17       R47       1
    C17       R51       1
    C17       R71       1.3852218703470265e+02
    C18       OBJ       -2.75
    C18       R17       1
    C18       R72       1.3852218703470265e+02
    C19       R4        -1
    C19       R16       1
    C19       R73       1.3852218703470265e+02
    C20       R4        -1
    C20       R7        1
    C21       R5        1
    C21       R20       -1
    C21       R26       -7.95
    C21       R27       -8.7
    C21       R28       -3
    C21       R29       14
    C21       R30       1
    C21       R31       -1
    C22       R15       1
    C22       R20       -1
    C22       R26       -8.84
    C22       R27       -9.45
    C22       R28       -3
    C22       R29       12
    C22       R30       1
    C22       R31       -1
    C22       R74       1.3852218703470265e+02
    C23       R11       1
    C23       R20       -1
    C23       R26       -9.43
    C23       R27       -9.57
    C23       R28       -3
    C23       R29       3.5
    C23       R30       0.233
    C23       R31       -0.358
    C23       R75       1.3852218703470265e+02
    C24       R12       1
    C24       R20       -1
    C24       R26       -9.03
    C24       R27       -9.32
    C24       R28       -3
    C24       R29       3.5
    C24       R30       0.205
    C24       R31       -0.333
    C24       R76       1.3852218703470265e+02
    C25       R18       1
    C25       R20       -1
    C25       R26       -9.23
    C25       R27       -9.22
    C25       R28       -3
    C25       R29       6
    C25       R30       0.381
    C25       R31       -0.509
    C25       R77       1.3852218703470265e+02
    C26       OBJ       0.1852412
    C26       R7        0.76
    C26       R17       0.5714
    C26       R20       -1
    C26       R24       0.1869
    C26       R25       0.2796
    C26       R26       -9.4
    C26       R27       -9.85
    C26       R28       -3
    C26       R29       2.5
    C26       R30       0.39
    C26       R31       -0.77
    C26       R78       1.3852218703470265e+02
    C27       OBJ       1.3779400000000025e-02
    C27       R4        -0.0114
    C27       R7        0.6571
    C27       R16       0.5714
    C27       R20       -1
    C27       R24       0.1724
    C27       R25       0.2579
    C27       R26       -9.74
    C27       R27       -10.1
    C27       R28       -3
    C27       R29       3.3
    C27       R30       0.233
    C27       R31       -0.58
    C27       R79       1.3852218703470265e+02
    C28       R4        1
    C28       R20       -1
    C28       R26       -9.74
    C28       R27       -9.9
    C28       R28       -3
    C28       R29       66
    C28       R30       1
    C28       R31       -1
    C29       OBJ       0.0924
    C29       R26       -0.493
    C29       R27       -0.165
    C29       R28       1
    C30       OBJ       -5.36
    C30       R20       1
    C30       R26       10.03
    C30       R27       10.03
    C30       R29       -9.5
    C30       R30       -0.5
    C30       R31       0.5
    C30       R52       0.64
    C30       R53       0.35
    C31       R5        1
    C31       R21       -1
    C31       R32       -7.98
    C31       R33       -8.58
    C31       R34       -3
    C31       R35       14
    C31       R36       1
    C31       R37       -1
    C32       R15       1
    C32       R21       -1
    C32       R32       -8.87
    C32       R33       -9.33
    C32       R34       -3
    C32       R35       12
    C32       R36       1
    C32       R37       -1
    C32       R80       1.3852218703470265e+02
    C33       R11       1
    C33       R21       -1
    C33       R32       -9.46
    C33       R33       -9.45
    C33       R34       -3
    C33       R35       3.5
    C33       R36       0.233
    C33       R37       -0.358
    C33       R81       1.3852218703470265e+02
    C34       R12       1
    C34       R21       -1
    C34       R32       -9.06
    C34       R33       -9.2
    C34       R34       -3
    C34       R35       3.5
    C34       R36       0.205
    C34       R37       -0.333
    C34       R82       1.3852218703470265e+02
    C35       R18       1
    C35       R21       -1
    C35       R32       -9.26
    C35       R33       -9.13
    C35       R34       -3
    C35       R35       6
    C35       R36       0.318
    C35       R37       -0.509
    C35       R83       1.3852218703470265e+02
    C36       R4        1
    C36       R21       -1
    C36       R32       -9.77
    C36       R33       -9.78
    C36       R34       -3
    C36       R35       66
    C36       R36       1
    C36       R37       -1
    C37       OBJ       0.0924
    C37       R32       -0.435
    C37       R33       -0.208
    C37       R34       1
    C38       OBJ       -5.08
    C38       R21       1
    C38       R32       9.65
    C38       R33       9.65
    C38       R35       -9.5
    C38       R36       -0.5
    C38       R37       0.5
    C38       R52       -0.36
    C38       R53       0.35
    C39       R5        1
    C39       R22       -1
    C39       R38       -7.99
    C39       R39       -8.59
    C39       R40       -3
    C39       R41       14
    C39       R42       1
    C39       R43       -1
    C40       R15       1
    C40       R22       -1
    C40       R38       -8.88
    C40       R39       -9.34
    C40       R40       -3
    C40       R41       12
    C40       R42       1
    C40       R43       -1
    C40       R84       1.3852218703470265e+02
    C41       R11       1
    C41       R22       -1
    C41       R38       -9.47
    C41       R39       -9.46
    C41       R40       -3
    C41       R41       3.5
    C41       R42       0.233
    C41       R43       -0.358
    C41       R85       1.3852218703470265e+02
    C42       R12       1
    C42       R22       -1
    C42       R38       -9.07
    C42       R39       -9.21
    C42       R40       -3
    C42       R41       3.5
    C42       R42       0.205
    C42       R43       -0.333
    C42       R86       1.3852218703470265e+02
    C43       R18       1
    C43       R22       -1
    C43       R38       -9.27
    C43       R39       -9.14
    C43       R40       -3
    C43       R41       6
    C43       R42       0.318
    C43       R43       -0.509
    C43       R87       1.3852218703470265e+02
    C44       R4        1
    C44       R22       -1
    C44       R38       -9.78
    C44       R39       -9.79
    C44       R40       -3
    C44       R41       66
    C44       R42       1
    C44       R43       -1
    C45       OBJ       0.0924
    C45       R38       -0.426
    C45       R39       -0.204
    C45       R40       1
    C46       OBJ       -4.51
    C46       R22       1
    C46       R38       9.05
    C46       R39       9.05
    C46       R41       -9.5
    C46       R42       -0.5
    C46       R43       0.5
    C46       R52       -0.36
    C46       R53       -0.65
    C47       OBJ       -2.75
    C47       R4        1
    C48       OBJ       -4.2
    C48       R5        1
    C48       R45       -12
    C48       R46       11
    C48       R88       1.3852218703470265e+02
    C49       OBJ       -4.2
    C49       R6        1
    C49       R45       1.2
    C49       R46       -2.2
    C49       R89       1.3852218703470265e+02
    C50       OBJ       -3.6
    C50       R1        1
    C50       R47       1
    C50       R90       1.3852218703470265e+02
    C51       OBJ       -3.6
    C51       R0        1
    C51       R47       1
    C51       R91       1.3852218703470265e+02
    C52       OBJ       -2
    C52       R3        1
    C52       R44       -2.0499999999999989e+00
    C52       R48       1
    C52       R92       1.3852218703470265e+02
    C53       OBJ       -2
    C53       R2        1
    C53       R44       -3.1999999999999993e+00
    C53       R47       1
    C53       R93       1.3852218703470265e+02
    C54       OBJ       -2
    C54       R19       1
    C54       R44       -5.6999999999999993e+00
    C54       R94       1.3852218703470265e+02
    C55       R23       1
    C55       R25       -0.325
    C55       R95       1.3852218703470265e+02
    C56       OBJ       0.04
    C56       R24       -1
    C56       R25       1.42
    C57       OBJ       3
    C57       R4        -0.5
    C57       R7        -0.5
    C58       OBJ       0.4
    C58       R25       -1
    C59       R24       1
    C60       R25       1
    C61       R26       1
    C62       R27       1
    C63       R28       1
    C64       R29       1
    C65       R30       1
    C66       R31       1
    C67       R32       1
    C68       R33       1
    C69       R34       1
    C70       R35       1
    C71       R36       1
    C72       R37       1
    C73       R38       1
    C74       R39       1
    C75       R40       1
    C76       R41       1
    C77       R42       1
    C78       R43       1
    C79       R44       1
    C80       R45       1
    C81       R46       1
    C82       R47       1
    C83       R48       1
    C84       R49       1
    C85       R50       1
    C86       R51       1
    C87       R52       1
    C88       R53       1
    C89       R54       1.3852218703470265e+02
    C90       R55       1.3852218703470265e+02
    C91       R56       1.3852218703470265e+02
    C92       R57       1.3852218703470265e+02
    C93       R58       1.3852218703470265e+02
    C94       R59       1.3852218703470265e+02
    C95       R60       1.3852218703470265e+02
    C96       R61       1.3852218703470265e+02
    C97       R62       1.3852218703470265e+02
    C98       R63       1.3852218703470265e+02
    C99       R64       1.3852218703470265e+02
    C100      R65       1.3852218703470265e+02
    C101      R66       1.3852218703470265e+02
    C102      R67       1.3852218703470265e+02
    C103      R68       1.3852218703470265e+02
    C104      R69       1.3852218703470265e+02
    C105      R70       1.3852218703470265e+02
    C106      R71       1.3852218703470265e+02
    C107      R72       1.3852218703470265e+02
    C108      R73       1.3852218703470265e+02
    C109      R74       1.3852218703470265e+02
    C110      R75       1.3852218703470265e+02
    C111      R76       1.3852218703470265e+02
    C112      R77       1.3852218703470265e+02
    C113      R78       1.3852218703470265e+02
    C114      R79       1.3852218703470265e+02
    C115      R80       1.3852218703470265e+02
    C116      R81       1.3852218703470265e+02
    C117      R82       1.3852218703470265e+02
    C118      R83       1.3852218703470265e+02
    C119      R84       1.3852218703470265e+02
    C120      R85       1.3852218703470265e+02
    C121      R86       1.3852218703470265e+02
    C122      R87       1.3852218703470265e+02
    C123      R88       1.3852218703470265e+02
    C124      R89       1.3852218703470265e+02
    C125      R90       1.3852218703470265e+02
    C126      R91       1.3852218703470265e+02
    C127      R92       1.3852218703470265e+02
    C128      R93       1.3852218703470265e+02
    C129      R94       1.3852218703470265e+02
    C130      R95       1.3852218703470265e+02
RHS
    RHS1      R47       23.26
    RHS1      R48       5.25
    RHS1      R49       13.45
    RHS1      R50       2.58
    RHS1      R51       10
    RHS1      R54       3.6459039627533739e+03
    RHS1      R55       2.9158920370804908e+03
    RHS1      R56       411.040989482402
    RHS1      R57       2.0274959729301834e+03
    RHS1      R58       8.9588440642882767e+02
    RHS1      R59       8.9588440642882767e+02
    RHS1      R60       1.4363168179511792e+03
    RHS1      R61       1.8671287084676562e+03
    RHS1      R62       1.4347435522119324e+03
    RHS1      R63       1.8651250612194021e+03
    RHS1      R64       3.5788315197911709e+02
    RHS1      R65       3.5788315197911709e+02
    RHS1      R66       3.5788315197911709e+02
    RHS1      R67       3.5788315197911709e+02
    RHS1      R68       4.9323610998236995e+02
    RHS1      R69       7.2810724560115580e+02
    RHS1      R70       6.1109216639247779e+02
    RHS1      R71       8.1973008243360346e+02
    RHS1      R72       1.7424242057289112e+02
    RHS1      R73       2.1020884315004426e+02
    RHS1      R74       4.9538573298556076e+02
    RHS1      R75       1169.90574408693
    RHS1      R76       1.5990289177177592e+03
    RHS1      R77       1.2825492072145485e+03
    RHS1      R78       3.0483557921513489e+02
    RHS1      R79       3.6777996594448928e+02
    RHS1      R80       4.9538573298556076e+02
    RHS1      R81       1169.90574408693
    RHS1      R82       1.5990289177177592e+03
    RHS1      R83       1.2825492072145485e+03
    RHS1      R84       4.9538573298556076e+02
    RHS1      R85       1169.90574408693
    RHS1      R86       1.5990289177177592e+03
    RHS1      R87       1.2825492072145485e+03
    RHS1      R88       4.0561001233566452e+02
    RHS1      R89       2.0274959729301834e+03
    RHS1      R90       6.1109216639247779e+02
    RHS1      R91       8.1973008243360346e+02
    RHS1      R92       7.2810724560115580e+02
    RHS1      R93       4.9323610998236995e+02
    RHS1      R94       7.9350361480051765e+02
    RHS1      R95       2.6189345742982832e+03
BOUNDS
ENDATA
